p cnf 0 0
c 1 color par vertex et au plus 1
4 5 6 0
-5 -4 0
-6 -4 0
-6 -5 0
7 8 9 0
-8 -7 0
-9 -7 0
-9 -8 0
10 11 12 0
-11 -10 0
-12 -10 0
-12 -11 0
13 14 15 0
-14 -13 0
-15 -13 0
-15 -14 0
c gc coresp to G
-4 -8 16 0
-4 -8 -17 1 0
-4 -8 17 -1 0
-4 -9 18 0
-4 -9 -19 1 0
-4 -9 19 -1 0
-5 -7 16 0
-5 -7 -17 1 0
-5 -7 17 -1 0
-5 -9 20 0
-5 -9 -21 1 0
-5 -9 21 -1 0
-6 -7 18 0
-6 -7 -19 1 0
-6 -7 19 -1 0
-6 -8 20 0
-6 -8 -21 1 0
-6 -8 21 -1 0
-7 -11 16 0
-7 -11 -17 2 0
-7 -11 17 -2 0
-7 -12 18 0
-7 -12 -19 2 0
-7 -12 19 -2 0
-8 -10 16 0
-8 -10 -17 2 0
-8 -10 17 -2 0
-8 -12 20 0
-8 -12 -21 2 0
-8 -12 21 -2 0
-9 -10 18 0
-9 -10 -19 2 0
-9 -10 19 -2 0
-9 -11 20 0
-9 -11 -21 2 0
-9 -11 21 -2 0
-10 -14 16 0
-10 -14 -17 3 0
-10 -14 17 -3 0
-10 -15 18 0
-10 -15 -19 3 0
-10 -15 19 -3 0
-11 -13 16 0
-11 -13 -17 3 0
-11 -13 17 -3 0
-11 -15 20 0
-11 -15 -21 3 0
-11 -15 21 -3 0
-12 -13 18 0
-12 -13 -19 3 0
-12 -13 19 -3 0
-12 -14 20 0
-12 -14 -21 3 0
-12 -14 21 -3 0
c X
-23 4 0
-22 4 0
-23 8 0
-22 8 0
-23 1 0
-22 -1 0
23 -4 -8 -1 0
22 -4 -8 1 0
-25 4 0
-24 4 0
-25 9 0
-24 9 0
-25 1 0
-24 -1 0
25 -4 -9 -1 0
24 -4 -9 1 0
-27 5 0
-26 5 0
-27 7 0
-26 7 0
-27 1 0
-26 -1 0
27 -5 -7 -1 0
26 -5 -7 1 0
-29 5 0
-28 5 0
-29 9 0
-28 9 0
-29 1 0
-28 -1 0
29 -5 -9 -1 0
28 -5 -9 1 0
-31 6 0
-30 6 0
-31 7 0
-30 7 0
-31 1 0
-30 -1 0
31 -6 -7 -1 0
30 -6 -7 1 0
-33 6 0
-32 6 0
-33 8 0
-32 8 0
-33 1 0
-32 -1 0
33 -6 -8 -1 0
32 -6 -8 1 0
-35 7 0
-34 7 0
-35 11 0
-34 11 0
-35 2 0
-34 -2 0
35 -7 -11 -2 0
34 -7 -11 2 0
-37 7 0
-36 7 0
-37 12 0
-36 12 0
-37 2 0
-36 -2 0
37 -7 -12 -2 0
36 -7 -12 2 0
-39 8 0
-38 8 0
-39 10 0
-38 10 0
-39 2 0
-38 -2 0
39 -8 -10 -2 0
38 -8 -10 2 0
-41 8 0
-40 8 0
-41 12 0
-40 12 0
-41 2 0
-40 -2 0
41 -8 -12 -2 0
40 -8 -12 2 0
-43 9 0
-42 9 0
-43 10 0
-42 10 0
-43 2 0
-42 -2 0
43 -9 -10 -2 0
42 -9 -10 2 0
-45 9 0
-44 9 0
-45 11 0
-44 11 0
-45 2 0
-44 -2 0
45 -9 -11 -2 0
44 -9 -11 2 0
-47 10 0
-46 10 0
-47 14 0
-46 14 0
-47 3 0
-46 -3 0
47 -10 -14 -3 0
46 -10 -14 3 0
-49 10 0
-48 10 0
-49 15 0
-48 15 0
-49 3 0
-48 -3 0
49 -10 -15 -3 0
48 -10 -15 3 0
-51 11 0
-50 11 0
-51 13 0
-50 13 0
-51 3 0
-50 -3 0
51 -11 -13 -3 0
50 -11 -13 3 0
-53 11 0
-52 11 0
-53 15 0
-52 15 0
-53 3 0
-52 -3 0
53 -11 -15 -3 0
52 -11 -15 3 0
-55 12 0
-54 12 0
-55 13 0
-54 13 0
-55 3 0
-54 -3 0
55 -12 -13 -3 0
54 -12 -13 3 0
-57 12 0
-56 12 0
-57 14 0
-56 14 0
-57 3 0
-56 -3 0
57 -12 -14 -3 0
56 -12 -14 3 0
c x suite
-16 -17 23 27 35 39 47 51 0
-18 -19 25 31 37 43 49 55 0
-20 -21 29 33 41 45 53 57 0
-16 17 22 26 34 38 46 50 0
-18 19 24 30 36 42 48 54 0
-20 21 28 32 40 44 52 56 0
c proper colo
-4 -7 0
-5 -8 0
-6 -9 0
-7 -10 0
-8 -11 0
-9 -12 0
-10 -13 0
-11 -14 0
-12 -15 0
16 58 0
18 59 0
20 60 0
-58 18 0
-58 20 0
-58 19 21 0
-58 -19 -21 0
58 -18 -20 19 -21 0
58 -18 -20 -19 21 0
-59 16 0
-59 20 0
-59 17 21 0
-59 -17 -21 0
59 -16 -20 17 -21 0
59 -16 -20 -17 21 0
-60 16 0
-60 18 0
-60 17 19 0
-60 -17 -19 0
60 -16 -18 17 -19 0
60 -16 -18 -17 19 0
c K couleurs
4 7 10 13 0
5 8 11 14 0
6 9 12 15 0
1 0
-5 0
-6 0
-9 0
